50
9014

406 68
122 113
909 779
705 895
761 198
842 874
429 339
36 655
485 262
837 525
913 788
626 127
893 530
197 601
1 488
169 402
463 838
421 408
834 443
71 72
802 524
33 828
251 942
788 979
811 789
273 687
652 787
4 339
284 692
162 372
564 292
865 742
981 469
601 419
263 868
987 452
49 211
217 196
47 423
301 502
914 909
839 760
907 578
41 462
191 939
233 25
809 205
815 72
651 413
335 746
